(set-logic QF_S)
(declare-fun var_0xINPUT_132602 () String)
(assert (and (= (len var_0xINPUT_132602) 0) (= (len var_0xINPUT_132602) 0) (not (= var_0xINPUT_132602 "CQALcCP5TB"))))
(check-sat var_0xINPUT_132602)